SPARKNaCl/why3-cvc5/sparknacl-sign.adb_481_28_range_check2_1.smt2
;; produced by cvc5.drv ;;
(set-logic ALL)
(set-info :smt-lib-version 2.6)
;;; generated by SMT-LIB2 driver
;;; SMT-LIB2 driver: bit-vectors, common part
;;; SMT-LIB2: integer arithmetic
(define-fun __cdiv ((x Int) (y Int)) Int (ite (>= x 0) (div x y) (- (div (- x) y))))
(define-fun __cmod ((x Int) (y Int)) Int (ite (>= x 0) (mod x y) (- (mod (- x) y))))
;; "min"
(define-fun min ((x Int) (y Int)) Int
  (ite (<= x y) x y))

;; "max"
(define-fun max ((x Int) (y Int)) Int
  (ite (<= x y) y x))

;; "Min_r"
(assert (forall ((x Int) (y Int)) (=> (<= y x) (= (min x y) y))))

;; "Max_l"
(assert (forall ((x Int) (y Int)) (=> (<= y x) (= (max x y) x))))

;; "Min_comm"
(assert (forall ((x Int) (y Int)) (= (min x y) (min y x))))

;; "Max_comm"
(assert (forall ((x Int) (y Int)) (= (max x y) (max y x))))

;; "Min_assoc"
(assert
  (forall ((x Int) (y Int) (z Int)) (= (min (min x y) z) (min x (min y z)))))

;; "Max_assoc"
(assert
  (forall ((x Int) (y Int) (z Int)) (= (max (max x y) z) (max x (max y z)))))

;; "in_range"
(define-fun in_range ((x Int)) Bool
  (and (<= (- 2147483648) x) (<= x 2147483647)))

(declare-sort i64 0)

;; "i64'int"
(declare-fun i64qtint (i64) Int)

;; "i64'axiom"
(assert
  (forall ((i i64))
    (and
      (<= (- 9223372036854775808) (i64qtint i))
      (<= (i64qtint i) 9223372036854775807))))

;; "in_range"
(define-fun in_range1 ((x Int)) Bool
  (and (<= (- 9223372036854775808) x) (<= x 9223372036854775807)))

;; "to_rep"
(define-fun to_rep ((x i64)) Int
  (i64qtint x))

;; "of_rep"
(declare-fun of_rep (Int) i64)

;; "inversion_axiom"
(assert
  (forall ((x i64)) (! (= (of_rep (to_rep x)) x) :pattern ((to_rep x)) )))

;; "range_axiom"
(assert (forall ((x i64)) (! (in_range1 (to_rep x)) :pattern ((to_rep x)) )))

;; "coerce_axiom"
(assert
  (forall ((x Int))
    (! (=> (in_range1 x) (= (to_rep (of_rep x)) x)) :pattern ((to_rep
                                                                (of_rep x))) )))

(declare-sort map1 0)

;; "has_bounds"
(declare-fun has_bounds (map1
  Int
  Int) Bool)

;; "get"
(declare-fun get (map1
  Int) i64)

(declare-const x map1)

(declare-sort l16_limb 0)

;; "l16_limb'int"
(declare-fun l16_limbqtint (l16_limb) Int)

;; "l16_limb'axiom"
(assert
  (forall ((i l16_limb))
    (and (<= 0 (l16_limbqtint i)) (<= (l16_limbqtint i) 3984))))

;; "in_range"
(define-fun in_range2 ((x1 Int)) Bool
  (and (<= 0 x1) (<= x1 3984)))

;; "to_rep"
(define-fun to_rep1 ((x1 l16_limb)) Int
  (l16_limbqtint x1))

;; "of_rep"
(declare-fun of_rep1 (Int) l16_limb)

;; "inversion_axiom"
(assert
  (forall ((x1 l16_limb))
    (! (= (of_rep1 (to_rep1 x1)) x1) :pattern ((to_rep1 x1)) )))

;; "range_axiom"
(assert
  (forall ((x1 l16_limb))
    (! (in_range2 (to_rep1 x1)) :pattern ((to_rep1 x1)) )))

;; "coerce_axiom"
(assert
  (forall ((x1 Int))
    (! (=> (in_range2 x1) (= (to_rep1 (of_rep1 x1)) x1)) :pattern ((to_rep1
                                                                    (of_rep1
                                                                    x1))) )))

(declare-sort map2 0)

;; "has_bounds"
(declare-fun has_bounds1 (map2
  Int
  Int) Bool)

;; "get"
(declare-fun get1 (map2
  Int) l16_limb)

(declare-const l16 map2)

(declare-sort xl_limb 0)

;; "xl_limb'int"
(declare-fun xl_limbqtint (xl_limb) Int)

;; "xl_limb'axiom"
(assert
  (forall ((i xl_limb))
    (and
      (<= (- 33299444949360) (xl_limbqtint i))
      (<= (xl_limbqtint i) 33299444949360))))

;; "in_range"
(define-fun in_range3 ((x1 Int)) Bool
  (and (<= (- 33299444949360) x1) (<= x1 33299444949360)))

;; "to_rep"
(define-fun to_rep2 ((x1 xl_limb)) Int
  (xl_limbqtint x1))

;; "of_rep"
(declare-fun of_rep2 (Int) xl_limb)

;; "inversion_axiom"
(assert
  (forall ((x1 xl_limb))
    (! (= (of_rep2 (to_rep2 x1)) x1) :pattern ((to_rep2 x1)) )))

;; "range_axiom"
(assert
  (forall ((x1 xl_limb))
    (! (in_range3 (to_rep2 x1)) :pattern ((to_rep2 x1)) )))

;; "coerce_axiom"
(assert
  (forall ((x1 Int))
    (! (=> (in_range3 x1) (= (to_rep2 (of_rep2 x1)) x1)) :pattern ((to_rep2
                                                                    (of_rep2
                                                                    x1))) )))

(declare-sort map3 0)

;; "has_bounds"
(declare-fun has_bounds2 (map3
  Int
  Int) Bool)

;; "get"
(declare-fun get2 (map3
  Int) xl_limb)

;; "set"
(declare-fun set (map3
  Int
  xl_limb) map3)

;; "set_eq"
(assert
  (forall ((a map3) (i Int) (v xl_limb))
    (! (= (get2 (set a i v) i) v) :pattern ((set a i v)) )))

;; "set_neq"
(assert
  (forall ((a map3) (i Int) (v xl_limb))
    (! (forall ((j Int))
         (! (=> (not (= i j)) (= (get2 (set a i v) j) (get2 a j))) :pattern (
         (get2
           a
           j)) :pattern ((get2 (set a i v) j)) )) :pattern ((set a i v)) )))

;; "set_has_bounds"
(assert
  (forall ((a map3) (i Int) (f Int) (l Int) (v xl_limb))
    (! (=>
         (and (<= f i) (<= i l))
         (=> (has_bounds2 a f l) (has_bounds2 (set a i v) f l))) :pattern (
    (has_bounds2
      (set a i v)
      f
      l)) )))

;; "power"
(declare-fun power (Int
  Int) Int)

;; "Power_0"
(assert (forall ((x1 Int)) (= (power x1 0) 1)))

;; "Power_s"
(assert
  (forall ((x1 Int) (n Int))
    (=> (<= 0 n) (= (power x1 (+ n 1)) (* x1 (power x1 n))))))

;; "Power_s_alt"
(assert
  (forall ((x1 Int) (n Int))
    (=> (< 0 n) (= (power x1 n) (* x1 (power x1 (- n 1)))))))

;; "Power_1"
(assert (forall ((x1 Int)) (= (power x1 1) x1)))

;; "Power_sum"
(assert
  (forall ((x1 Int) (n Int) (m Int))
    (=>
      (<= 0 n)
      (=> (<= 0 m) (= (power x1 (+ n m)) (* (power x1 n) (power x1 m)))))))

;; "Power_mult"
(assert
  (forall ((x1 Int) (n Int) (m Int))
    (=> (<= 0 n) (=> (<= 0 m) (= (power x1 (* n m)) (power (power x1 n) m))))))

;; "Power_comm1"
(assert
  (forall ((x1 Int) (y Int))
    (=>
      (= (* x1 y) (* y x1))
      (forall ((n Int))
        (=> (<= 0 n) (= (* (power x1 n) y) (* y (power x1 n))))))))

;; "Power_comm2"
(assert
  (forall ((x1 Int) (y Int))
    (=>
      (= (* x1 y) (* y x1))
      (forall ((n Int))
        (=> (<= 0 n) (= (power (* x1 y) n) (* (power x1 n) (power y n))))))))

;; "Power_non_neg"
(assert
  (forall ((x1 Int) (y Int))
    (=> (and (<= 0 x1) (<= 0 y)) (<= 0 (power x1 y)))))

;; "Power_pos"
(assert
  (forall ((x1 Int) (y Int)) (=> (and (< 0 x1) (<= 0 y)) (< 0 (power x1 y)))))

;; "Power_monotonic"
(assert
  (forall ((x1 Int) (n Int) (m Int))
    (=>
      (and (< 0 x1) (and (<= 0 n) (<= n m)))
      (<= (power x1 n) (power x1 m)))))

;; "shift_right_arithmetic"
(define-fun shift_right_arithmetic ((x1 Int) (n Int) (us Int)) Int
  (ite (< x1 0) (- (__cdiv (+ x1 1) (power 2 n)) 1) (__cdiv x1 (power 2 n))))

;; "asr_8"
(declare-fun asr_8 (Int) Int)

;; "asr_8__function_guard"
(declare-fun asr_8__function_guard (Int
  Int) Bool)

;; "ada___sparknacl__sign__l16__aggregate_def"
(declare-fun ada___sparknacl__sign__l16__aggregate_def (Int
  Int
  Int
  Int
  Int
  Int
  Int
  Int
  Int
  Int
  Int
  Int
  Int
  Int
  Int
  Int
  Int
  Int
  Int
  Int
  Int
  Int
  Int
  Int
  Int
  Int
  Int
  Int
  Int
  Int
  Int
  Int) map2)

;; "in_range"
(define-fun in_range4 ((x1 Int)) Bool
  (and (<= (- 33554432) x1) (<= x1 16384)))

;; "in_range"
(define-fun in_range5 ((x1 Int)) Bool
  (and (<= (- 133680857088) x1) (<= x1 8356196976)))

;; "in_range"
(define-fun in_range6 ((x1 Int)) Bool
  (and (<= (- 128) x1) (<= x1 127)))

;; "in_range"
(define-fun in_range7 ((x1 Int)) Bool
  (and (<= 0 x1) (<= x1 2089216)))

;; "l16__def_axiom"
(assert
  (= l16 (let ((temp___410qtunused (ada___sparknacl__sign__l16__aggregate_def
                                     3792
                                     3376
                                     3920
                                     1472
                                     416
                                     1584
                                     288
                                     1408
                                     3424
                                     2496
                                     3952
                                     2592
                                     3552
                                     3984
                                     3552
                                     320
                                     0
                                     0
                                     0
                                     0
                                     0
                                     0
                                     0
                                     0
                                     0
                                     0
                                     0
                                     0
                                     0
                                     0
                                     0
                                     256)))
           (ada___sparknacl__sign__l16__aggregate_def
             3792
             3376
             3920
             1472
             416
             1584
             288
             1408
             3424
             2496
             3952
             2592
             3552
             3984
             3552
             320
             0
             0
             0
             0
             0
             0
             0
             0
             0
             0
             0
             0
             0
             0
             0
             256))))

(declare-const rliteral l16_limb)

;; "rliteral_axiom"
(assert (= (l16_limbqtint rliteral) 3792))

(declare-const rliteral1 l16_limb)

;; "rliteral_axiom"
(assert (= (l16_limbqtint rliteral1) 3376))

(declare-const rliteral2 l16_limb)

;; "rliteral_axiom"
(assert (= (l16_limbqtint rliteral2) 3920))

(declare-const rliteral3 l16_limb)

;; "rliteral_axiom"
(assert (= (l16_limbqtint rliteral3) 1472))

(declare-const rliteral4 l16_limb)

;; "rliteral_axiom"
(assert (= (l16_limbqtint rliteral4) 416))

(declare-const rliteral5 l16_limb)

;; "rliteral_axiom"
(assert (= (l16_limbqtint rliteral5) 1584))

(declare-const rliteral6 l16_limb)

;; "rliteral_axiom"
(assert (= (l16_limbqtint rliteral6) 288))

(declare-const rliteral7 l16_limb)

;; "rliteral_axiom"
(assert (= (l16_limbqtint rliteral7) 1408))

(declare-const rliteral8 l16_limb)

;; "rliteral_axiom"
(assert (= (l16_limbqtint rliteral8) 3424))

(declare-const rliteral9 l16_limb)

;; "rliteral_axiom"
(assert (= (l16_limbqtint rliteral9) 2496))

(declare-const rliteral10 l16_limb)

;; "rliteral_axiom"
(assert (= (l16_limbqtint rliteral10) 3952))

(declare-const rliteral11 l16_limb)

;; "rliteral_axiom"
(assert (= (l16_limbqtint rliteral11) 2592))

(declare-const rliteral12 l16_limb)

;; "rliteral_axiom"
(assert (= (l16_limbqtint rliteral12) 3552))

(declare-const rliteral13 l16_limb)

;; "rliteral_axiom"
(assert (= (l16_limbqtint rliteral13) 3984))

(declare-const rliteral14 l16_limb)

;; "rliteral_axiom"
(assert (= (l16_limbqtint rliteral14) 320))

(declare-const rliteral15 l16_limb)

;; "rliteral_axiom"
(assert (= (l16_limbqtint rliteral15) 0))

(declare-const rliteral16 l16_limb)

;; "rliteral_axiom"
(assert (= (l16_limbqtint rliteral16) 256))

;; "def_axiom"
(assert
  (forall ((temp___375 Int) (temp___376 Int) (temp___377 Int) (temp___378 Int) (temp___379 Int) (temp___380 Int) (temp___381 Int) (temp___382 Int) (temp___383 Int) (temp___384 Int) (temp___385 Int) (temp___386 Int) (temp___387 Int) (temp___388 Int) (temp___389 Int) (temp___390 Int) (temp___391 Int) (temp___392 Int) (temp___393 Int) (temp___394 Int) (temp___395 Int) (temp___396 Int) (temp___397 Int) (temp___398 Int) (temp___399 Int) (temp___400 Int) (temp___401 Int) (temp___402 Int) (temp___403 Int) (temp___404 Int) (temp___405 Int) (temp___406 Int))
    (let ((temp___407 (ada___sparknacl__sign__l16__aggregate_def
                        temp___375
                        temp___376
                        temp___377
                        temp___378
                        temp___379
                        temp___380
                        temp___381
                        temp___382
                        temp___383
                        temp___384
                        temp___385
                        temp___386
                        temp___387
                        temp___388
                        temp___389
                        temp___390
                        temp___391
                        temp___392
                        temp___393
                        temp___394
                        temp___395
                        temp___396
                        temp___397
                        temp___398
                        temp___399
                        temp___400
                        temp___401
                        temp___402
                        temp___403
                        temp___404
                        temp___405
                        temp___406)))
      (and
        (and
          (and
            (= (get1 temp___407 0) rliteral)
            (= (get1 temp___407 1) rliteral1))
          (and
            (and
              (and
                (and
                  (and
                    (= (get1 temp___407 2) rliteral2)
                    (= (get1 temp___407 3) rliteral3))
                  (and
                    (= (get1 temp___407 4) rliteral4)
                    (= (get1 temp___407 5) rliteral5)))
                (and
                  (and
                    (= (get1 temp___407 6) rliteral6)
                    (= (get1 temp___407 7) rliteral7))
                  (and
                    (= (get1 temp___407 8) rliteral8)
                    (= (get1 temp___407 9) rliteral9))))
              (and
                (and
                  (and
                    (= (get1 temp___407 10) rliteral10)
                    (= (get1 temp___407 11) rliteral11))
                  (and
                    (= (get1 temp___407 12) rliteral12)
                    (= (get1 temp___407 13) rliteral13)))
                (and
                  (and
                    (= (get1 temp___407 14) rliteral12)
                    (= (get1 temp___407 15) rliteral14))
                  (= (get1 temp___407 16) rliteral15))))
            (and
              (and
                (and
                  (and
                    (= (get1 temp___407 17) rliteral15)
                    (= (get1 temp___407 18) rliteral15))
                  (and
                    (= (get1 temp___407 19) rliteral15)
                    (= (get1 temp___407 20) rliteral15)))
                (and
                  (and
                    (= (get1 temp___407 21) rliteral15)
                    (= (get1 temp___407 22) rliteral15))
                  (and
                    (= (get1 temp___407 23) rliteral15)
                    (= (get1 temp___407 24) rliteral15))))
              (and
                (and
                  (and
                    (= (get1 temp___407 25) rliteral15)
                    (= (get1 temp___407 26) rliteral15))
                  (and
                    (= (get1 temp___407 27) rliteral15)
                    (= (get1 temp___407 28) rliteral15)))
                (and
                  (and
                    (= (get1 temp___407 29) rliteral15)
                    (= (get1 temp___407 30) rliteral15))
                  (= (get1 temp___407 31) rliteral16))))))
        (=>
          (and
            (and (and (<= 0 0) (<= 0 31)) (and (<= 0 1) (<= 1 31)))
            (and
              (and
                (and
                  (and
                    (and (and (<= 0 2) (<= 2 31)) (and (<= 0 3) (<= 3 31)))
                    (and (and (<= 0 4) (<= 4 31)) (and (<= 0 5) (<= 5 31))))
                  (and
                    (and (and (<= 0 6) (<= 6 31)) (and (<= 0 7) (<= 7 31)))
                    (and (and (<= 0 8) (<= 8 31)) (and (<= 0 9) (<= 9 31)))))
                (and
                  (and
                    (and
                      (and (<= 0 10) (<= 10 31))
                      (and (<= 0 11) (<= 11 31)))
                    (and
                      (and (<= 0 12) (<= 12 31))
                      (and (<= 0 13) (<= 13 31))))
                  (and
                    (and
                      (and (<= 0 14) (<= 14 31))
                      (and (<= 0 15) (<= 15 31)))
                    (and (<= 0 16) (<= 16 31)))))
              (and
                (and
                  (and
                    (and
                      (and (<= 0 17) (<= 17 31))
                      (and (<= 0 18) (<= 18 31)))
                    (and
                      (and (<= 0 19) (<= 19 31))
                      (and (<= 0 20) (<= 20 31))))
                  (and
                    (and
                      (and (<= 0 21) (<= 21 31))
                      (and (<= 0 22) (<= 22 31)))
                    (and
                      (and (<= 0 23) (<= 23 31))
                      (and (<= 0 24) (<= 24 31)))))
                (and
                  (and
                    (and
                      (and (<= 0 25) (<= 25 31))
                      (and (<= 0 26) (<= 26 31)))
                    (and
                      (and (<= 0 27) (<= 27 31))
                      (and (<= 0 28) (<= 28 31))))
                  (and
                    (and
                      (and (<= 0 29) (<= 29 31))
                      (and (<= 0 30) (<= 30 31)))
                    (and (<= 0 31) (<= 31 31)))))))
          (has_bounds1 temp___407 0 31))))))

;; Goal "def'vc"
;; File "sparknacl-sign.adb", line 303, characters 0-0
(assert
  (not
  (forall ((xl map3) (carry Int) (adjustment Int) (xli Int))
    (=>
      (has_bounds x 0 63)
      (=>
        (has_bounds1 l16 0 31)
        (forall ((temp___2617 map2))
          (=>
            (and
              (and
                (and
                  (and
                    (= (get1 temp___2617 0) rliteral)
                    (= (get1 temp___2617 1) rliteral1))
                  (and
                    (and
                      (and
                        (and
                          (and
                            (= (get1 temp___2617 2) rliteral2)
                            (= (get1 temp___2617 3) rliteral3))
                          (and
                            (= (get1 temp___2617 4) rliteral4)
                            (= (get1 temp___2617 5) rliteral5)))
                        (and
                          (and
                            (= (get1 temp___2617 6) rliteral6)
                            (= (get1 temp___2617 7) rliteral7))
                          (and
                            (= (get1 temp___2617 8) rliteral8)
                            (= (get1 temp___2617 9) rliteral9))))
                      (and
                        (and
                          (and
                            (= (get1 temp___2617 10) rliteral10)
                            (= (get1 temp___2617 11) rliteral11))
                          (and
                            (= (get1 temp___2617 12) rliteral12)
                            (= (get1 temp___2617 13) rliteral13)))
                        (and
                          (and
                            (= (get1 temp___2617 14) rliteral12)
                            (= (get1 temp___2617 15) rliteral14))
                          (= (get1 temp___2617 16) rliteral15))))
                    (and
                      (and
                        (and
                          (and
                            (= (get1 temp___2617 17) rliteral15)
                            (= (get1 temp___2617 18) rliteral15))
                          (and
                            (= (get1 temp___2617 19) rliteral15)
                            (= (get1 temp___2617 20) rliteral15)))
                        (and
                          (and
                            (= (get1 temp___2617 21) rliteral15)
                            (= (get1 temp___2617 22) rliteral15))
                          (and
                            (= (get1 temp___2617 23) rliteral15)
                            (= (get1 temp___2617 24) rliteral15))))
                      (and
                        (and
                          (and
                            (= (get1 temp___2617 25) rliteral15)
                            (= (get1 temp___2617 26) rliteral15))
                          (and
                            (= (get1 temp___2617 27) rliteral15)
                            (= (get1 temp___2617 28) rliteral15)))
                        (and
                          (and
                            (= (get1 temp___2617 29) rliteral15)
                            (= (get1 temp___2617 30) rliteral15))
                          (= (get1 temp___2617 31) rliteral16))))))
                (has_bounds1 temp___2617 0 31))
              (= temp___2617 (ada___sparknacl__sign__l16__aggregate_def
                               3792
                               3376
                               3920
                               1472
                               416
                               1584
                               288
                               1408
                               3424
                               2496
                               3952
                               2592
                               3552
                               3984
                               3552
                               320
                               0
                               0
                               0
                               0
                               0
                               0
                               0
                               0
                               0
                               0
                               0
                               0
                               0
                               0
                               0
                               256)))
            (=>
              (= temp___2617 l16)
              (=>
                (has_bounds x 0 63)
                (=>
                  (has_bounds2 xl 0 63)
                  (=>
                    (and
                      (and
                        (and
                          (and
                            (forall ((k Int))
                              (=>
                                (and (<= 0 k) (<= k 30))
                                (and
                                  (= (to_rep2 (get2 xl k)) (to_rep (get x k)))
                                  (let ((temp___2578 (to_rep2 (get2 xl k))))
                                    (and
                                      (<= 0 temp___2578)
                                      (<= temp___2578 2081055))))))
                            (forall ((k Int))
                              (=>
                                (and (<= 31 k) (<= k 50))
                                (in_range6 (to_rep2 (get2 xl k))))))
                          (in_range7 (to_rep2 (get2 xl 51))))
                        (forall ((k Int))
                          (=>
                            (and (<= 52 k) (<= k 62))
                            (and
                              (= (to_rep2 (get2 xl k)) (to_rep (get x k)))
                              (let ((temp___2582 (to_rep2 (get2 xl k))))
                                (and
                                  (<= 0 temp___2582)
                                  (<= temp___2582 2081055)))))))
                      (= (to_rep2 (get2 xl 63)) 0))
                    (=>
                      (in_range4 carry)
                      (=>
                        (in_range5 adjustment)
                        (=>
                          (in_range3 xli)
                          (forall ((i Int))
                            (=>
                              (= i 62)
                              (=>
                                (= (and (ite (<= 32 i) true false) (ite (<= i 62)
                                                                    true
                                                                    false)) true)
                                (forall ((carry1 Int))
                                  (=>
                                    (= carry1 0)
                                    (forall ((o Int))
                                      (=>
                                        (= (to_rep2 (get2 xl i)) o)
                                        (forall ((xli1 Int))
                                          (=>
                                            (= xli1 o)
                                            (let ((temp___2413 (- i 32)))
                                              (forall ((j Int))
                                                (=>
                                                  (= j temp___2413)
                                                  (=>
                                                    (= (and (ite (<= temp___2413 j)
                                                              true
                                                              false) 
                                                    (ite (<= j (- i 17))
                                                      true
                                                      false)) true)
                                                    (let ((o1 (- j (- i 32))))
                                                      (=>
                                                        (in_range o1)
                                                        (=>
                                                          (and
                                                            (<= 0 o1)
                                                            (<= o1 31))
                                                          (forall ((o2 Int))
                                                            (=>
                                                              (= (to_rep1
                                                                   (get1
                                                                    l16
                                                                    o1)) o2)
                                                              (let ((o3 (* o2 xli1)))
                                                                (=>
                                                                  (in_range5
                                                                    o3)
                                                                  (forall 
                                                                    ((adjustment1 Int))
                                                                    (=>
                                                                    (= adjustment1 o3)
                                                                    (forall 
                                                                    ((o4 Int))
                                                                    (=>
                                                                    (= 
                                                                    (to_rep2
                                                                    (get2
                                                                    xl
                                                                    j)) o4)
                                                                    (let ((o5 (- (+ o4 carry1) adjustment1)))
                                                                    (=>
                                                                    (in_range3
                                                                    o5)
                                                                    (forall 
                                                                    ((o6 xl_limb))
                                                                    (=>
                                                                    (= 
                                                                    (to_rep2
                                                                    o6) o5)
                                                                    (forall 
                                                                    ((xl1 map3))
                                                                    (=>
                                                                    (= xl1 
                                                                    (set
                                                                    xl
                                                                    j
                                                                    o6))
                                                                    (forall 
                                                                    ((o7 Int))
                                                                    (=>
                                                                    (= 
                                                                    (to_rep2
                                                                    (get2
                                                                    xl1
                                                                    j)) o7)
                                                                    (let ((o8 (+ o7 128)))
                                                                    (let ((o9 
                                                                    (asr_8
                                                                    o8)))
                                                                    (=>
                                                                    (and
                                                                    (asr_8__function_guard
                                                                    o9
                                                                    o8)
                                                                    (and
                                                                    (in_range1
                                                                    o9)
                                                                    (and
                                                                    (= o9 
                                                                    (shift_right_arithmetic
                                                                    o8
                                                                    8
                                                                    64))
                                                                    (ite (<= 0 o8)
                                                                    (= o9 (__cdiv o8 256))
                                                                    (= o9 (- (__cdiv (+ o8 1) 256) 1))))))
                                                                    (<= o9 16384))))))))))))))))))))))))))))))))))))))))))))))))))

(check-sat)
